c FILE /home/rafael/Documents/HappySet/MIHS/inputs/happygen/output/graph_scale_free_k10_p0.3_v100_20241127_083914.txt
c SOURCE This is a scale-free graph formed for the happy graph colouring problem.
c DESCRIPTION It was generated using the problem generator of Rhyd Lewis
c
c GRAPH STATS
c Seed                             = 696155331
c Number of Nodes                  = 100
c Number of colours k              = 10
c Number of pre-assignments        = 30
c Number of links per new node     = 5
c Density                          = 0.0979798
c 
c The degrees of nodes 1 to 100, respectively, are as follows 
c [39, 38, 33, 26, 25, 24, 24, 18, 17, 16, 16, 15, 15, 15, 15, 15, 14, 13, 13, 12, 12, 12, 12, 11, 11, 11, 
c  10, 10, 10, 10, 10, 10, 10, 10, 10, 9, 9, 9, 9, 9, 9, 9, 8, 8, 8, 8, 8, 8, 8, 7, 7, 
c  7, 7, 7, 7, 7, 7, 7, 6, 6, 6, 6, 6, 6, 6, 6, 6, 6, 6, 6, 6, 6, 6, 6, 5, 5, 
c  5, 5, 5, 5, 5, 5, 5, 5, 5, 5, 5, 5, 5, 5, 5, 5, 5, 5, 5, 5, 5, 5, 5, 5] 
c  
p edge 100 485 10
e 1 2
e 1 3
e 1 4
e 1 5
e 1 6
e 1 7
e 1 8
e 1 10
e 1 11
e 1 12
e 1 13
e 1 14
e 1 16
e 1 17
e 1 19
e 1 21
e 1 22
e 1 23
e 1 25
e 1 26
e 1 28
e 1 30
e 1 32
e 1 33
e 1 34
e 1 36
e 1 37
e 1 44
e 1 45
e 1 47
e 1 54
e 1 59
e 1 60
e 1 63
e 1 73
e 1 78
e 1 84
e 1 96
e 1 97
e 2 3
e 2 4
e 2 5
e 2 6
e 2 7
e 2 8
e 2 10
e 2 12
e 2 13
e 2 14
e 2 15
e 2 18
e 2 20
e 2 21
e 2 22
e 2 24
e 2 27
e 2 31
e 2 35
e 2 36
e 2 38
e 2 39
e 2 41
e 2 47
e 2 50
e 2 52
e 2 55
e 2 56
e 2 59
e 2 67
e 2 69
e 2 70
e 2 72
e 2 75
e 2 82
e 2 84
e 2 96
e 3 4
e 3 5
e 3 7
e 3 8
e 3 11
e 3 12
e 3 14
e 3 15
e 3 16
e 3 21
e 3 22
e 3 23
e 3 24
e 3 27
e 3 34
e 3 35
e 3 40
e 3 43
e 3 52
e 3 73
e 3 76
e 3 77
e 3 79
e 3 80
e 3 84
e 3 85
e 3 87
e 3 89
e 3 92
e 3 97
e 3 98
e 4 5
e 4 6
e 4 7
e 4 10
e 4 11
e 4 12
e 4 13
e 4 15
e 4 16
e 4 19
e 4 20
e 4 23
e 4 25
e 4 28
e 4 32
e 4 39
e 4 40
e 4 43
e 4 44
e 4 56
e 4 62
e 4 63
e 4 69
e 5 6
e 5 13
e 5 17
e 5 20
e 5 22
e 5 25
e 5 29
e 5 30
e 5 38
e 5 41
e 5 46
e 5 47
e 5 49
e 5 51
e 5 53
e 5 61
e 5 63
e 5 73
e 5 80
e 5 92
e 5 93
e 6 7
e 6 8
e 6 10
e 6 12
e 6 14
e 6 17
e 6 27
e 6 29
e 6 30
e 6 33
e 6 43
e 6 50
e 6 57
e 6 64
e 6 66
e 6 71
e 6 74
e 6 76
e 6 78
e 6 81
e 7 9
e 7 12
e 7 16
e 7 18
e 7 21
e 7 24
e 7 28
e 7 44
e 7 52
e 7 54
e 7 56
e 7 57
e 7 59
e 7 62
e 7 70
e 7 75
e 7 82
e 7 91
e 7 100
e 8 10
e 8 18
e 8 20
e 8 24
e 8 27
e 8 29
e 8 36
e 8 53
e 8 56
e 8 60
e 8 66
e 8 72
e 8 79
e 8 99
e 9 10
e 9 14
e 9 18
e 9 21
e 9 25
e 9 27
e 9 30
e 9 53
e 9 54
e 9 55
e 9 58
e 9 61
e 9 75
e 9 78
e 9 81
e 9 87
e 10 12
e 10 20
e 10 21
e 10 23
e 10 28
e 10 29
e 10 53
e 10 71
e 10 73
e 10 74
e 11 14
e 11 21
e 11 23
e 11 32
e 11 34
e 11 39
e 11 50
e 11 54
e 11 55
e 11 63
e 11 77
e 11 85
e 11 95
e 12 13
e 12 14
e 12 17
e 12 51
e 12 69
e 12 82
e 12 88
e 12 94
e 13 15
e 13 17
e 13 31
e 13 33
e 13 42
e 13 51
e 13 54
e 13 57
e 13 92
e 13 96
e 14 15
e 14 18
e 14 35
e 14 44
e 14 47
e 14 49
e 14 58
e 14 61
e 15 19
e 15 38
e 15 40
e 15 45
e 15 48
e 15 50
e 15 59
e 15 76
e 15 83
e 15 91
e 16 26
e 16 39
e 16 40
e 16 57
e 16 66
e 16 68
e 16 76
e 16 77
e 16 79
e 16 80
e 16 86
e 17 19
e 17 24
e 17 31
e 17 36
e 17 38
e 17 65
e 17 78
e 17 81
e 17 83
e 18 19
e 18 20
e 18 31
e 18 47
e 18 49
e 18 52
e 18 68
e 18 90
e 19 37
e 19 39
e 19 51
e 19 61
e 19 62
e 19 86
e 19 88
e 19 94
e 20 22
e 20 34
e 20 37
e 20 48
e 20 58
e 20 85
e 21 26
e 21 28
e 21 30
e 21 33
e 21 73
e 22 37
e 22 45
e 22 59
e 22 60
e 22 77
e 22 85
e 22 93
e 23 32
e 23 43
e 23 62
e 23 65
e 23 72
e 23 87
e 23 93
e 24 29
e 24 34
e 24 36
e 24 37
e 24 41
e 24 42
e 25 31
e 25 36
e 25 42
e 25 50
e 25 52
e 25 69
e 25 83
e 26 31
e 26 45
e 26 48
e 26 63
e 26 76
e 26 87
e 26 88
e 26 98
e 27 43
e 27 45
e 27 46
e 27 83
e 27 98
e 28 39
e 28 67
e 28 84
e 28 89
e 28 90
e 29 40
e 29 55
e 29 67
e 29 84
e 29 86
e 30 33
e 30 49
e 30 65
e 30 90
e 30 95
e 31 42
e 31 48
e 31 61
e 31 77
e 32 36
e 32 38
e 32 45
e 32 46
e 32 71
e 32 82
e 33 46
e 33 49
e 33 51
e 33 66
e 33 85
e 34 35
e 34 67
e 34 68
e 34 71
e 34 90
e 35 45
e 35 55
e 35 56
e 35 69
e 35 89
e 35 93
e 36 70
e 36 72
e 37 48
e 37 53
e 37 88
e 37 89
e 38 44
e 38 64
e 38 75
e 38 79
e 39 42
e 39 68
e 39 75
e 40 60
e 40 62
e 40 64
e 40 70
e 41 48
e 41 51
e 41 68
e 41 86
e 41 90
e 41 94
e 42 74
e 42 83
e 42 89
e 42 99
e 43 46
e 43 64
e 43 100
e 44 96
e 44 98
e 44 100
e 45 91
e 46 65
e 46 81
e 46 94
e 47 72
e 47 80
e 47 97
e 48 74
e 48 80
e 49 64
e 49 87
e 49 99
e 50 57
e 50 99
e 51 97
e 52 60
e 52 67
e 53 58
e 53 100
e 54 66
e 54 86
e 55 92
e 55 99
e 56 82
e 56 95
e 57 81
e 57 98
e 58 65
e 58 88
e 58 91
e 59 78
e 60 95
e 61 79
e 62 65
e 63 100
e 64 74
e 66 96
e 67 70
e 68 95
e 69 71
e 70 92
e 71 93
e 72 91
e 73 94
e 74 97
n 5 2
n 7 1
n 14 3
n 21 1
n 31 4
n 36 10
n 40 4
n 45 9
n 50 6
n 51 2
n 54 1
n 55 6
n 56 1
n 59 1
n 65 8
n 68 2
n 69 1
n 71 1
n 72 10
n 75 1
n 77 4
n 79 4
n 80 2
n 87 9
n 88 9
n 89 7
n 90 6
n 94 5
n 99 6
n 100 1
